 ! --------------------------------------------------- CP Optimizer 22.1.1.0 --
 ! Satisfiability problem - 46280 variables, 475674 constraints
 ! Presolve      : 28800 extractables eliminated
 ! TimeLimit            = 3600
 ! Workers              = 1
 ! Initial process time : 4.57s (4.56s extraction + 0.01s propagation)
 !  . Log search space  : 481435.4 (before), 481435.4 (after)
 !  . Memory usage      : 336.3 MB (before), 336.3 MB (after)
 ! Using sequential search.
 ! ----------------------------------------------------------------------------
 !               Branches  Non-fixed            Branch decision
                     1127      44201        F          presenceOf(copy_trips:11_7)
                     2041      45589        F          presenceOf(copy_trips:37_0)
                     3000      36728                   presenceOf(copy_lane_parking:0_104)
                     4000      21354                   presenceOf(copy_lane_parking:4_242)
                     5000      29908                   presenceOf(copy_lane_parking:0_299)
                     6000      29778        F          presenceOf(copy_trips:38_0)
                     7000      38476                   presenceOf(copy_bus_parking:6_2)
                     8000      38202                   presenceOf(copy_trips:16_347)
                     9000      26757                  !presenceOf(copy_bus_parking:18_342)
                    10000      26627                  !presenceOf(copy_trips:3_355)
                    11000      16177        F         !presenceOf(copy_bus_parking:36_243)
                    12000      16177                   presenceOf(copy_lane_parking:4_57)
                    13000      33616                  !presenceOf(copy_bus_parking:22_36)
                    14000      33610                  !presenceOf(copy_bus_parking:28_36)
                    15000      33610                  !presenceOf(copy_bus_parking:16_36)
                    16000      30006                  !presenceOf(copy_bus_parking:12_351)
                    17000      16502        F          presenceOf(copy_trips:21_258)
                    18000      16502        F          presenceOf(copy_bus_parking:32_40)
                    19000      33397                   presenceOf(copy_lane_parking:0_70)
                    20000      25669                   presenceOf(copy_lane_parking:4_21)
 ! Time = 33.53s, Average fail depth = 443, Memory usage = 1.1 GB
 !               Branches  Non-fixed            Branch decision
                    21000      33984                   presenceOf(copy_lane_parking:1_212)
                    22000      29878                   presenceOf(copy_lane_parking:0_265)
                    23000      21345                  !presenceOf(copy_trips:17_56)
                    24000      21345                  !presenceOf(copy_trips:27_56)
                    25000      21345                  !presenceOf(copy_trips:20_56)
                    26000      21345                  !presenceOf(copy_bus_parking:4_56)
                    27000      33055        F          presenceOf(copy_bus_parking:28_324)
                    28000      16496                  !presenceOf(copy_trips:2_258)
                    29000      16496                  !presenceOf(copy_trips:24_11)
                    30000      16499                  !presenceOf(copy_trips:14_258)
                    31000      16499                   presenceOf(copy_bus_parking:10_246)
                    32000      16172                   presenceOf(copy_lane_parking:0_230)
                    33000      29784                  !presenceOf(copy_bus_parking:5_359)
                    34000      29787                   presenceOf(copy_lane_parking:2_137)
                    35000      34150                   presenceOf(copy_lane_parking:5_295)
                    36000      29983                   presenceOf(copy_lane_parking:2_297)
                    37000      28253                   presenceOf(copy_lane_parking:1_165)
                    38000      39682                   presenceOf(copy_lane_parking:0_293)
                    39000      29887            245 != endOf(start_parking:37)
                    40000      40198        F          presenceOf(copy_trips:10_16)
 ! Time = 64.12s, Average fail depth = 465, Memory usage = 1.1 GB
 !               Branches  Non-fixed            Branch decision
                    41000      27121        F          presenceOf(copy_bus_parking:17_11)
                    42000      26410        F          presenceOf(copy_bus_parking:20_12)
                    43000      26409        F          presenceOf(copy_bus_parking:11_48)
                    44000      26410                   presenceOf(copy_lane_parking:2_301)
                    45000      41299        F          presenceOf(copy_bus_parking:1_8)
                    46000      41136        F         !presenceOf(copy_trips:9_3)
                    47000      41136                  !presenceOf(copy_bus_parking:5_9)
                    48000      41136                  !presenceOf(copy_bus_parking:23_9)
                    49000      41126                  !presenceOf(copy_bus_parking:4_11)
                    50000      41097        F          presenceOf(copy_bus_parking:10_9)
                    51000      41136        F          presenceOf(copy_trips:17_3)
                    52000      41136        F          presenceOf(copy_trips:17_3)
                    53000      41299                   presenceOf(copy_bus_parking:28_6)
                    54000      41136                  !presenceOf(copy_trips:12_4)
                    55000      41289                  !presenceOf(copy_bus_parking:5_9)
                    56000      41136                  !presenceOf(copy_trips:1_4)
                    57000      41289                  !presenceOf(copy_bus_parking:18_9)
                    58000      29778                   presenceOf(copy_lane_parking:2_97)
                    59000      33607                   presenceOf(copy_lane_parking:5_194)
                    60000      33394        F          presenceOf(copy_bus_parking:10_34)
 ! Time = 84.63s, Average fail depth = 439, Memory usage = 1.1 GB
 !               Branches  Non-fixed            Branch decision
                    61000      29888                  !presenceOf(copy_trips:39_353)
                    62000      29888                  !presenceOf(copy_trips:13_353)
                    63000      29888        F          presenceOf(copy_trips:0_355)
                    64000      29888                   presenceOf(copy_lane_parking:1_39)
                    65000      21321        F          presenceOf(copy_bus_parking:14_56)
                    66000      21321                  !presenceOf(copy_bus_parking:26_56)
                    67000      21321        F          presenceOf(copy_bus_parking:34_56)
                    68000      21321                  !presenceOf(copy_bus_parking:28_349)
                    69000      16194                  !presenceOf(copy_bus_parking:17_10)
                    70000      33565                  !presenceOf(copy_trips:0_34)
                    71000      29772                  !presenceOf(copy_trips:1_355)
                    72000      29772        F          presenceOf(copy_trips:0_355)
                    73000      29772                  !presenceOf(copy_trips:35_353)
                    74000      29772                  !presenceOf(copy_trips:29_353)
                    75000      29772                  !presenceOf(copy_trips:31_353)
                    76000      29772                  !presenceOf(copy_trips:20_355)
                    77000      29772        F          presenceOf(copy_trips:10_355)
                    78000      29772                  !presenceOf(copy_bus_parking:26_357)
                    79000      29772        F          presenceOf(copy_trips:10_355)
                    80000      29772                  !presenceOf(copy_trips:32_353)
 ! Time = 104.42s, Average fail depth = 455, Memory usage = 1.1 GB
 !               Branches  Non-fixed            Branch decision
                    81000      29772        F          presenceOf(copy_trips:32_355)
                    82000      29772                  !presenceOf(copy_trips:21_353)
                    83000      29772                  !presenceOf(copy_bus_parking:37_357)
                    84000      29769        F         !presenceOf(copy_trips:12_36)
                    85000      33981        F         !presenceOf(copy_bus_parking:32_3)
                    86000      29778        F          presenceOf(copy_bus_parking:16_355)
                    87000      16171        F          presenceOf(copy_bus_parking:33_243)
                    88000      16171        F          presenceOf(copy_bus_parking:21_355)
                    89000      25237                   presenceOf(copy_bus_parking:33_275)
                    90000      16496                  !presenceOf(copy_trips:16_355)
                    91000      29790        F          presenceOf(copy_trips:18_33)
                    92000      33385            245 != endOf(start_parking:28)
                    93000      16499        F          presenceOf(copy_bus_parking:21_258)
                    94000      39035                   presenceOf(copy_lane_parking:4_239)
                    95000      29879                   presenceOf(copy_lane_parking:3_215)
                    96000      22671                   presenceOf(copy_bus_parking:18_339)
                    97000      29775        F          presenceOf(copy_trips:14_0)
                    98000      34165                  !presenceOf(copy_trips:38_46)
                    99000      29808                  !presenceOf(copy_bus_parking:9_355)
                     100k      16499        F          presenceOf(copy_bus_parking:0_258)
 ! Time = 130.15s, Average fail depth = 453, Memory usage = 1.1 GB
 !               Branches  Non-fixed            Branch decision
                     101k      16499                  !presenceOf(copy_trips:27_356)
                     102k      16499        F          presenceOf(copy_bus_parking:21_258)
                     103k      16499        F          presenceOf(copy_bus_parking:1_258)
                     104k      16499                  !presenceOf(copy_trips:14_34)
                     105k      30220        F          presenceOf(copy_bus_parking:26_357)
                     106k      29879                  !presenceOf(copy_bus_parking:6_353)
                     107k      29899        F          presenceOf(copy_trips:19_357)
                     108k      29899        F         !presenceOf(copy_bus_parking:29_353)
                     109k      29899                  !presenceOf(copy_bus_parking:3_353)
                     110k      29899        F          presenceOf(copy_bus_parking:26_359)
                     111k      29899        F          presenceOf(copy_bus_parking:9_359)
                     112k      29899        F          presenceOf(copy_bus_parking:1_359)
                     113k      29899        F          presenceOf(copy_bus_parking:37_359)
                     114k      29899        F          presenceOf(copy_bus_parking:22_359)
                     115k      29899        F          presenceOf(copy_bus_parking:19_359)
                     116k      29899        F          presenceOf(copy_bus_parking:31_359)
                     117k      29899        F          presenceOf(copy_trips:19_357)
                     118k      29899                  !presenceOf(copy_bus_parking:0_353)
                     119k      29899                   presenceOf(copy_trips:4_138)
                     120k      16499                   presenceOf(copy_lane_parking:0_203)
 ! Time = 143.70s, Average fail depth = 464, Memory usage = 1.1 GB
 !               Branches  Non-fixed            Branch decision
                     121k      41782                   presenceOf(copy_lane_parking:2_159)
                     122k      29781                  !presenceOf(copy_trips:39_355)
                     123k      29784                  !presenceOf(copy_trips:33_355)
                     124k      29781                  !presenceOf(copy_trips:0_355)
                     125k      27840                  !presenceOf(copy_trips:25_8)
                     126k      27840        F          presenceOf(copy_bus_parking:14_2)
                     127k      16499                  !presenceOf(copy_bus_parking:6_258)
                     128k      16499                  !presenceOf(copy_bus_parking:31_258)
                     129k      16499                  !presenceOf(copy_bus_parking:36_258)
                     130k      16499                   presenceOf(copy_lane_parking:3_82)
                     131k      29784                   presenceOf(copy_lane_parking:5_310)
                     132k      38516        F         !presenceOf(copy_trips:1_0)
                     133k      38114        F          presenceOf(copy_bus_parking:4_37)
                     134k      33225                   presenceOf(copy_lane_parking:0_33)
                     135k      29870                   presenceOf(copy_lane_parking:4_167)
                     136k      33770        F          presenceOf(copy_bus_parking:9_27)
                     137k      29884                   presenceOf(copy_lane_parking:2_349)
                     138k      33747        F          presenceOf(copy_trips:7_31)
                     139k      26550                  !presenceOf(copy_trips:24_6)
                     140k      26334        F          presenceOf(copy_trips:0_353)
 ! Time = 167.59s, Average fail depth = 464, Memory usage = 1.1 GB
 !               Branches  Non-fixed            Branch decision
                     141k      29888        F          presenceOf(copy_bus_parking:10_38)
                     142k      16541        F          presenceOf(copy_trips:31_246)
                     143k      16186                  !presenceOf(copy_bus_parking:17_355)
                     144k      29772                   presenceOf(copy_lane_parking:3_198)
                     145k      36092                  !presenceOf(copy_bus_parking:12_77)
                     146k      30212                  !presenceOf(copy_bus_parking:6_116)
                     147k      30210                  !presenceOf(copy_trips:24_18)
                     148k      30210        F          presenceOf(copy_bus_parking:26_0)
                     149k      28903                  !presenceOf(copy_bus_parking:15_1)
                     150k      28903        F          presenceOf(copy_bus_parking:3_17)
                     151k      33750                   presenceOf(copy_lane_parking:2_322)
                     152k      20768        F          presenceOf(copy_bus_parking:19_40)
                     153k      20768        F          presenceOf(copy_bus_parking:11_40)
                     154k      20768        F          presenceOf(copy_bus_parking:13_40)
                     155k      20768        F          presenceOf(copy_bus_parking:10_40)
                     156k      20768        F          presenceOf(copy_bus_parking:25_40)
                     157k      20768        F          presenceOf(copy_bus_parking:35_40)
                     158k      20768        F          presenceOf(copy_bus_parking:0_40)
                     159k      20768        F          presenceOf(copy_bus_parking:16_40)
                     160k      20768                  !presenceOf(copy_bus_parking:4_55)
 ! Time = 192.92s, Average fail depth = 471, Memory usage = 1.1 GB
 !               Branches  Non-fixed            Branch decision
                     161k      20768        F          presenceOf(copy_bus_parking:12_40)
                     162k      20768        F          presenceOf(copy_bus_parking:13_40)
                     163k      20768        F          presenceOf(copy_bus_parking:10_40)
                     164k      20768        F          presenceOf(copy_bus_parking:25_40)
                     165k      20774            245 != endOf(start_parking:32)
                     166k      35901            945  = startOf(charge:25_67)
                     167k      35594                  !presenceOf(copy_trips:8_344)
                     168k      42167                  !presenceOf(copy_trips:26_344)
                     169k      36831                  !presenceOf(copy_bus_parking:11_328)
                     170k      36831                   presenceOf(copy_trips:33_55)
                     171k      28996                   presenceOf(copy_trips:20_39)
                     172k      20690        F          presenceOf(copy_trips:37_49)
                     173k      20687        F          presenceOf(copy_trips:29_49)
                     174k      20687                  !presenceOf(copy_trips:36_40)
                     175k      20687                   presenceOf(copy_trips:1_44)
                     176k      20687                  !presenceOf(copy_trips:34_40)
                     177k      20687        F          presenceOf(copy_trips:24_49)
                     178k      20687        F          presenceOf(copy_trips:36_49)
                     179k      20687                  !presenceOf(copy_trips:30_49)
                     180k      20687                  !presenceOf(copy_trips:37_40)
 ! Time = 223.98s, Average fail depth = 468, Memory usage = 1.1 GB
 !               Branches  Non-fixed            Branch decision
                     181k      20687                  !presenceOf(copy_trips:14_40)
                     182k      20687                  !presenceOf(copy_trips:34_40)
                     183k      20687        F          presenceOf(copy_trips:4_49)
                     184k      20678                  !presenceOf(copy_trips:14_40)
                     185k      20678                   presenceOf(copy_lane_parking:1_216)
                     186k      33981        F          presenceOf(copy_trips:27_35)
                     187k      33581        F          presenceOf(copy_trips:9_35)
                     188k      33578        F          presenceOf(copy_trips:8_35)
                     189k      33575                  !presenceOf(copy_trips:12_35)
                     190k      33575        F          presenceOf(copy_trips:33_36)
                     191k      33575                  !presenceOf(copy_trips:29_36)
                     192k      33575                  !presenceOf(copy_trips:3_33)
                     193k      33572        F         !presenceOf(copy_trips:3_35)
                     194k      33578        F          presenceOf(copy_trips:8_36)
                     195k      33575        F          presenceOf(copy_trips:23_35)
                     196k      33581                  !presenceOf(copy_trips:12_35)
                     197k      33578                  !presenceOf(copy_trips:30_36)
                     198k      33981                  !presenceOf(copy_bus_parking:35_46)
                     199k      33581                   presenceOf(copy_trips:39_36)
                     200k      33575        F          presenceOf(copy_trips:6_35)
 ! Time = 253.78s, Average fail depth = 468, Memory usage = 1.1 GB
 !               Branches  Non-fixed            Branch decision
                     201k      33575                  !presenceOf(copy_bus_parking:11_46)
                     202k      33575        F          presenceOf(copy_trips:0_35)
                     203k      33572                  !presenceOf(copy_trips:11_33)
                     204k      33575                  !presenceOf(copy_bus_parking:17_46)
                     205k      33578                   presenceOf(copy_bus_parking:25_42)
                     206k      33981                  !presenceOf(copy_bus_parking:23_46)
                     207k      33578                  !presenceOf(copy_trips:23_35)
                     208k      33575        F          presenceOf(copy_bus_parking:9_42)
                     209k      33575                  !presenceOf(copy_trips:28_36)
                     210k      33572                  !presenceOf(copy_bus_parking:23_46)
                     211k      33575        F          presenceOf(copy_trips:6_35)
                     212k      33578                  !presenceOf(copy_bus_parking:38_46)
                     213k      33981                  !presenceOf(copy_trips:35_36)
                     214k      33978                  !presenceOf(copy_bus_parking:1_46)
                     215k      33978                  !presenceOf(copy_trips:34_35)
                     216k      33978        F          presenceOf(copy_trips:10_36)
                     217k      33978        F          presenceOf(copy_trips:28_35)
                     218k      33978        F          presenceOf(copy_trips:13_35)
                     219k      34156        F          presenceOf(copy_trips:17_35)
                     220k      33978        F          presenceOf(copy_trips:12_35)
 ! Time = 285.96s, Average fail depth = 465, Memory usage = 1.1 GB
 !               Branches  Non-fixed            Branch decision
                     221k      33575                  !presenceOf(copy_trips:19_36)
                     222k      33575        F          presenceOf(copy_trips:24_36)
                     223k      33575                  !presenceOf(copy_trips:22_33)
                     224k      33575                  !presenceOf(copy_trips:5_35)
                     225k      33572        F          presenceOf(copy_trips:29_35)
                     226k      33572                  !presenceOf(copy_trips:16_35)
                     227k      33978                  !presenceOf(copy_bus_parking:23_46)
                     228k      33572        F          presenceOf(copy_trips:36_35)
                     229k      33569        F          presenceOf(copy_trips:19_35)
                     230k      33575        F          presenceOf(copy_trips:25_35)
                     231k      33572                  !presenceOf(copy_trips:27_36)
                     232k      33578                  !presenceOf(copy_trips:38_36)
                     233k      33575                  !presenceOf(copy_bus_parking:16_46)
                     234k      33978        F          presenceOf(copy_trips:8_35)
                     235k      33575        F          presenceOf(copy_trips:30_36)
                     236k      33575        F          presenceOf(copy_trips:35_35)
                     237k      29766                  !presenceOf(copy_bus_parking:2_355)
                     238k      29766                  !presenceOf(copy_bus_parking:11_355)
                     239k      29766                  !presenceOf(copy_bus_parking:10_355)
                     240k      29766                  !presenceOf(copy_bus_parking:30_355)
 ! Time = 315.25s, Average fail depth = 464, Memory usage = 1.1 GB
 !               Branches  Non-fixed            Branch decision
                     241k      29769                  !presenceOf(copy_bus_parking:31_355)
                     242k      29766                  !presenceOf(copy_bus_parking:34_355)
                     243k      29769        F          presenceOf(copy_trips:10_353)
                     244k      29766                   presenceOf(copy_trips:8_353)
                     245k      29769        F          presenceOf(copy_trips:19_353)
                     246k      29766        F         !presenceOf(copy_bus_parking:23_355)
                     247k      29769        F          presenceOf(copy_trips:11_353)
                     248k      29766                  !presenceOf(copy_bus_parking:31_355)
                     249k      29769        F          presenceOf(copy_trips:34_353)
                     250k      29772                  !presenceOf(copy_bus_parking:38_355)
                     251k      29772                  !presenceOf(copy_bus_parking:34_355)
                     252k      29772                   presenceOf(copy_trips:0_353)
                     253k      29772        F          presenceOf(copy_trips:11_353)
                     254k      29772        F          presenceOf(copy_trips:34_353)
                     255k      29775                  !presenceOf(copy_bus_parking:21_355)
                     256k      29775        F          presenceOf(copy_bus_parking:9_351)
                     257k      29772        F          presenceOf(copy_trips:1_353)
                     258k      29772                  !presenceOf(copy_bus_parking:4_357)
                     259k      29772                  !presenceOf(copy_bus_parking:34_357)
                     260k      29772                  !presenceOf(copy_bus_parking:37_355)
 ! Time = 326.37s, Average fail depth = 465, Memory usage = 1.1 GB
 !               Branches  Non-fixed            Branch decision
                     261k      29772        F          presenceOf(copy_bus_parking:5_357)
                     262k      29772        F          presenceOf(copy_trips:30_353)
                     263k      29772                  !presenceOf(copy_bus_parking:35_355)
                     264k      29775                  !presenceOf(copy_bus_parking:14_355)
                     265k      29772        F          presenceOf(copy_trips:18_353)
                     266k      29772                  !presenceOf(copy_bus_parking:11_355)
                     267k      29772                  !presenceOf(copy_bus_parking:33_355)
                     268k      29772                  !presenceOf(copy_bus_parking:14_355)
                     269k      29772                  !presenceOf(copy_bus_parking:12_355)
                     270k      29772                  !presenceOf(copy_bus_parking:6_357)
                     271k      29772                  !presenceOf(copy_bus_parking:12_355)
                     272k      29772        F          presenceOf(copy_trips:19_353)
                     273k      29772                  !presenceOf(copy_bus_parking:14_355)
                     274k      29772        F          presenceOf(copy_trips:10_353)
                     275k      29772                  !presenceOf(copy_bus_parking:28_355)
                     276k      29775                  !presenceOf(copy_bus_parking:18_355)
                     277k      29772                  !presenceOf(copy_bus_parking:37_355)
                     278k      29772        F          presenceOf(copy_trips:29_353)
                     279k      29772                  !presenceOf(copy_bus_parking:6_355)
                     280k      29772        F          presenceOf(copy_trips:37_353)
 ! Time = 337.65s, Average fail depth = 467, Memory usage = 1.1 GB
 !               Branches  Non-fixed            Branch decision
                     281k      29778                  !presenceOf(copy_bus_parking:32_355)
                     282k      29775        F          presenceOf(copy_trips:4_353)
                     283k      29775                  !presenceOf(copy_bus_parking:10_355)
                     284k      29775                  !presenceOf(copy_trips:37_353)
                     285k      29775                  !presenceOf(copy_bus_parking:30_355)
                     286k      29772        F          presenceOf(copy_trips:32_353)
                     287k      29772                  !presenceOf(copy_bus_parking:38_355)
                     288k      29772                  !presenceOf(copy_bus_parking:32_355)
                     289k      29772        F          presenceOf(copy_trips:25_357)
                     290k      30122                  !presenceOf(copy_bus_parking:17_351)
                     291k      30122        F          presenceOf(copy_trips:10_357)
                     292k      30122                   presenceOf(copy_lane_parking:1_235)
                     293k      29787                  !presenceOf(copy_bus_parking:22_2)
                     294k      33432                  !presenceOf(copy_trips:6_36)
                     295k      20684        F          presenceOf(copy_bus_parking:26_49)
                     296k      16496                  !presenceOf(copy_bus_parking:7_258)
                     297k      16496                  !presenceOf(copy_bus_parking:34_1)
                     298k      30010                  !presenceOf(copy_bus_parking:0_351)
                     299k      16190        F          presenceOf(copy_bus_parking:7_243)
                     300k      16190                  !presenceOf(copy_bus_parking:9_1)
 ! Time = 357.50s, Average fail depth = 468, Memory usage = 1.1 GB
 !               Branches  Non-fixed            Branch decision
                     301k      35033                   presenceOf(copy_lane_parking:5_67)
                     302k      43120                   presenceOf(copy_lane_parking:2_85)
                     303k      16191                  !presenceOf(copy_bus_parking:32_243)
                     304k      16191                   presenceOf(copy_lane_parking:4_180)
                     305k      33803                   presenceOf(copy_lane_parking:2_231)
                     306k      33803        F          presenceOf(copy_trips:0_28)
                     307k      29793                   presenceOf(copy_lane_parking:3_267)
                     308k      42508        F         !presenceOf(copy_bus_parking:2_2)
                     309k      29781        F          presenceOf(copy_trips:36_359)
                     310k      29778        F         !presenceOf(copy_bus_parking:11_355)
                     311k      29781        F          presenceOf(copy_trips:5_359)
                     312k      29784                  !presenceOf(copy_trips:9_46)
                     313k      33109                   presenceOf(copy_lane_parking:0_193)
                     314k      16164                   presenceOf(copy_lane_parking:1_321)
                     315k      16168        F          presenceOf(copy_bus_parking:2_243)
                     316k      16168        F          presenceOf(copy_bus_parking:1_243)
                     317k      16168                  !presenceOf(copy_bus_parking:1_243)
                     318k      16168        F          presenceOf(copy_bus_parking:16_243)
                     319k      16168        F          presenceOf(copy_bus_parking:16_243)
                     320k      16168        F          presenceOf(copy_bus_parking:1_243)
 ! Time = 379.92s, Average fail depth = 469, Memory usage = 1.1 GB
 !               Branches  Non-fixed            Branch decision
                     321k      16168        F          presenceOf(copy_bus_parking:1_243)
                     322k      16168        F          presenceOf(copy_bus_parking:8_243)
                     323k      16168        F          presenceOf(copy_bus_parking:2_243)
                     324k      16168        F          presenceOf(copy_bus_parking:1_243)
                     325k      16168        F          presenceOf(copy_bus_parking:22_244)
                     326k      16168        F          presenceOf(copy_bus_parking:34_243)
                     327k      16168        F          presenceOf(copy_bus_parking:12_243)
                     328k      16171                   presenceOf(copy_trips:32_192)
                     329k      16176        F          presenceOf(copy_trips:1_245)
                     330k      16176        F          presenceOf(copy_trips:2_245)
                     331k      16176        F         !presenceOf(copy_bus_parking:18_243)
                     332k      16176        F         !presenceOf(copy_bus_parking:18_243)
                     333k      16176                   presenceOf(copy_trips:38_245)
                     334k      16176        F         !presenceOf(copy_bus_parking:18_243)
                     335k      16176        F         !presenceOf(copy_bus_parking:18_243)
                     336k      16176        F         !presenceOf(copy_bus_parking:18_243)
                     337k      16176                   presenceOf(copy_trips:33_245)
                     338k      16176        F          presenceOf(copy_trips:18_245)
                     339k      16176        F         !presenceOf(copy_bus_parking:18_243)
                     340k      16176                   presenceOf(copy_trips:12_245)
 ! Time = 385.37s, Average fail depth = 477, Memory usage = 1.1 GB
 !               Branches  Non-fixed            Branch decision
                     341k      16176                   presenceOf(copy_trips:14_245)
                     342k      16176        F         !presenceOf(copy_bus_parking:18_243)
                     343k      16176                   presenceOf(copy_trips:37_245)
                     344k      16176        F         !presenceOf(copy_bus_parking:18_243)
                     345k      16176                   presenceOf(copy_trips:27_245)
                     346k      16176                   presenceOf(copy_trips:37_245)
                     347k      16176        F         !presenceOf(copy_bus_parking:18_243)
                     348k      16176                   presenceOf(copy_trips:8_245)
                     349k      16176        F         !presenceOf(copy_bus_parking:18_243)
                     350k      16176        F         !presenceOf(copy_bus_parking:18_243)
                     351k      16176        F         !presenceOf(copy_bus_parking:18_243)
                     352k      16176        F         !presenceOf(copy_bus_parking:18_243)
                     353k      16176        F          presenceOf(copy_bus_parking:18_243)
                     354k      16176        F         !presenceOf(copy_bus_parking:18_243)
                     355k      16176        F          presenceOf(copy_trips:2_245)
                     356k      16176                  !presenceOf(copy_trips:1_244)
                     357k      16176                   presenceOf(copy_trips:37_245)
                     358k      16176        F         !presenceOf(copy_bus_parking:18_243)
                     359k      16176        F         !presenceOf(copy_bus_parking:18_243)
                     360k      16176        F          presenceOf(copy_trips:1_245)
 ! Time = 390.07s, Average fail depth = 485, Memory usage = 1.1 GB
 !               Branches  Non-fixed            Branch decision
                     361k      16176        F         !presenceOf(copy_bus_parking:18_243)
                     362k      16176        F         !presenceOf(copy_bus_parking:18_243)
                     363k      16176        F          presenceOf(copy_trips:1_245)
                     364k      16176                   presenceOf(copy_trips:38_245)
                     365k      16176        F         !presenceOf(copy_bus_parking:18_243)
                     366k      16176        F         !presenceOf(copy_bus_parking:18_243)
                     367k      16176                   presenceOf(copy_trips:16_245)
                     368k      16176                   presenceOf(copy_trips:33_245)
                     369k      16176                   presenceOf(copy_trips:14_245)
                     370k      16176                   presenceOf(copy_trips:15_245)
                     371k      16176        F         !presenceOf(copy_bus_parking:18_243)
                     372k      16176        F         !presenceOf(copy_bus_parking:18_243)
                     373k      16176                  !presenceOf(copy_trips:10_244)
                     374k      16176        F         !presenceOf(copy_bus_parking:18_243)
                     375k      16176        F         !presenceOf(copy_bus_parking:18_243)
                     376k      16176        F         !presenceOf(copy_bus_parking:18_243)
                     377k      16176        F          presenceOf(copy_trips:1_245)
                     378k      16176        F         !presenceOf(copy_bus_parking:18_243)
                     379k      16176                   presenceOf(copy_trips:33_245)
                     380k      16176                  !presenceOf(copy_trips:10_258)
 ! Time = 395.89s, Average fail depth = 492, Memory usage = 1.1 GB
 !               Branches  Non-fixed            Branch decision
                     381k      16502                  !presenceOf(copy_bus_parking:35_359)
                     382k      29790        F          presenceOf(copy_trips:27_40)
                     383k      34874                   presenceOf(copy_lane_parking:3_67)
                     384k      25438                  !presenceOf(copy_trips:12_154)
                     385k      11435                  !presenceOf(copy_trips:16_261)
                     386k         67            on charge:23_339
 *                   386k  403.90s                   -
 ! ----------------------------------------------------------------------------
 ! Search completed, 1 solution found.
 ! ----------------------------------------------------------------------------
 ! Number of branches     : 386122
 ! Number of fails        : 162986
 ! Total memory usage     : 1.2 GB (1.2 GB CP Optimizer + 0.0 GB Concert)
 ! Time spent in solve    : 403.91s (399.35s engine + 4.56s extraction)
 ! Search speed (br. / s) : 966.9
 ! ----------------------------------------------------------------------------
